s td 100 29 194
b 1 3 34 35 41 42 44 57 65 78 95 100 136 139 154 156 162 168 190
b 2 9 10 14 18 37 45 49 58 59 70 86 87 99 105 107 134 136 188
b 3 2 12 20 26 29 48 50 52 54 55 64 73 101 122 131 157 173 184
b 4 2 5 19 21 24 28 31 33 60 66 71 76 79 88 89 102 118 147
b 5 63 68 82 90 91 115 123 125 127 130 132 134 145 151 152 172 185 194
b 6 4 11 17 23 53 85 98 103 120 121 140 149 159 165 166 177 181 185
b 7 2 5 19 21 24 28 31 33 60 66 76 79 88 89 102 118 147 184
b 8 3 9 34 35 41 42 57 65 78 95 100 136 139 154 156 162 168 190
b 9 4 11 17 23 53 85 98 103 115 120 121 140 149 159 165 177 181 185
b 10 9 10 14 18 37 45 58 59 70 86 87 99 105 134 136 169 188
b 11 9 14 18 37 45 58 59 70 86 87 99 105 134 136 161 169 188
b 12 9 18 37 43 45 58 59 70 86 87 99 105 134 136 161 169 188
b 13 9 37 43 45 58 59 70 86 87 99 105 134 136 161 169 187 188
b 14 9 37 43 45 58 59 70 75 86 99 105 134 136 161 169 187 188
b 15 9 37 43 45 58 59 70 75 86 105 134 136 146 161 169 187 188
b 16 7 9 37 43 45 58 59 70 75 86 134 136 146 161 169 187 188
b 17 6 7 27 39 40 43 70 75 80 104 128 136 144 146 161 169 175 183 187
b 18 6 7 27 36 39 40 43 45 75 80 86 104 128 136 144 146 161 169 175 187
b 19 6 7 27 39 40 43 45 59 70 75 80 86 104 128 136 144 146 161 169 175 187
b 20 6 7 9 27 39 40 43 45 59 70 75 86 104 128 134 136 144 146 161 169 175 187
b 21 6 7 9 27 35 39 40 43 75 86 104 128 134 136 146 161 169 187
b 22 6 7 9 27 35 39 40 43 67 75 104 128 134 136 146 161 169 187 190
b 23 67 75 134 190
b 24 6 7 9 27 34 35 39 40 43 51 56 67 75 78 92 93 96 104 111 128 136 146 160 161 169 178 182 187 190
b 25 6 9 27 34 35 40 43 51 56 67 75 78 92 93 96 111 128 136 146 160 161 168 169 178 182 187 190
b 26 6 9 27 34 35 43 51 56 67 75 78 92 93 96 111 128 136 146 156 160 161 168 169 182 187 190
b 27 9 27 34 35 43 51 56 67 75 78 92 93 96 111 128 136 146 154 156 161 168 169 182 187 190
b 28 9 27 34 35 43 51 56 67 75 78 92 93 96 128 136 139 146 154 156 161 168 182 187 190
b 29 9 27 34 35 43 51 56 75 78 92 93 96 100 136 139 146 154 156 161 168 182 187 190
b 30 9 27 34 35 43 51 56 78 92 93 95 100 136 139 146 154 156 161 168 182 187 190
b 31 9 27 34 35 43 51 56 57 78 93 95 100 136 139 146 154 156 161 168 182 190
b 32 9 27 34 35 42 43 51 57 78 93 95 100 136 139 154 156 161 168 182 190
b 33 9 34 35 41 42 43 57 78 93 95 100 136 139 154 156 161 168 182 190
b 34 3 9 34 35 41 42 43 57 78 93 95 100 136 139 154 156 168 190
b 35 6 7 27 34 35 39 40 43 51 56 67 75 78 92 93 96 104 111 117 128 136 146 160 161 169 178 182 187 190
b 36 7 9 27 39 43 45 58 59 70 75 86 134 136 144 146 161 169 175 187
b 37 7 9 27 37 43 45 58 59 70 75 86 134 136 144 146 161 169 187
b 38 2 12 20 26 29 48 52 54 55 64 101 122 131 143 157 173 184
b 39 2 20 26 29 48 52 54 55 64 101 116 122 131 143 157 173 184
b 40 2 26 29 48 52 54 55 64 101 116 119 122 131 143 157 173 184
b 41 2 29 48 52 54 55 64 101 116 119 122 131 142 143 157 173 184
b 42 2 48 52 54 55 64 74 101 116 119 122 131 142 143 157 173 184
b 43 2 48 52 55 64 74 75 101 116 119 122 131 142 143 157 173 184
b 44 2 48 52 55 74 75 101 113 116 119 122 131 142 143 157 173 184
b 45 2 48 52 55 74 75 101 113 116 119 131 142 143 157 173 184 192
b 46 2 25 61 62 67 69 74 75 106 113 116 119 133 142 143 167 173 176 192
b 47 2 48 52 55 67 74 75 101 113 116 119 131 142 143 173 176 184 192
b 48 2 48 55 62 67 74 75 101 113 116 119 131 133 142 143 173 176 184 192
b 49 2 25 48 62 67 74 75 101 106 113 116 119 131 133 142 143 167 173 176 184 192
b 50 2 5 25 48 62 67 74 75 106 113 116 119 142 143 167 176 184 192
b 51 2 5 25 62 67 74 75 106 113 116 119 142 143 167 176 184 192
b 52 2 5 13 15 25 46 62 74 75 79 106 112 113 116 119 126 142 143 153 155 158 163 167 171 176 184 186 191 192
b 53 2 5 13 15 21 25 46 62 74 75 79 112 113 116 119 126 142 143 153 155 158 163 167 171 176 184 186 191 192
b 54 2 5 15 21 25 46 74 75 79 102 112 113 116 119 126 142 143 153 155 158 163 167 171 176 184 186 191 192
b 55 2 5 21 25 46 66 74 75 79 102 112 113 116 119 126 142 153 155 158 163 167 171 176 184 186 191 192
b 56 2 5 21 46 66 74 75 79 102 112 113 116 118 119 126 142 153 155 158 163 167 171 176 184 191 192
b 57 2 5 21 66 74 75 76 79 102 112 113 116 118 119 126 142 153 155 158 163 167 171 184 191 192
b 58 2 5 21 66 75 76 79 88 102 112 113 116 118 119 126 142 153 155 158 167 171 184 191 192
b 59 2 5 21 66 76 79 88 102 112 113 116 118 119 126 142 153 155 158 167 171 184 191 192
b 60 2 5 21 66 76 79 88 89 102 112 113 116 118 119 126 142 153 158 167 171 184 191 192
b 61 2 5 21 60 66 76 79 88 89 102 113 116 118 126 142 153 158 167 171 184 191 192
b 62 2 5 21 33 60 66 76 79 88 89 102 113 116 118 142 153 158 167 171 184 191
b 63 2 5 21 31 33 60 66 76 79 88 89 102 113 118 142 153 158 167 184 191
b 64 2 5 21 28 31 33 60 66 76 79 88 89 102 113 118 153 167 184 191
b 65 2 5 19 21 28 31 33 60 66 76 79 88 89 102 113 118 153 184
b 66 2 25 48 61 62 67 74 75 101 106 113 116 119 131 133 142 143 167 173 176 192
b 67 2 25 48 61 62 67 74 75 101 106 110 113 116 119 133 142 143 167 176 192
b 68 2 5 13 15 25 46 62 74 75 79 106 112 113 116 119 126 142 143 153 155 158 163 167 171 176 186 191 192 193
b 69 1 6 7 27 34 35 38 39 40 43 51 56 67 75 92 93 96 104 111 117 128 136 146 160 161 169 178 182 187
b 70 22 63 68 82 90 91 115 123 125 127 130 134 145 151 152 172 185 194
b 71 22 68 77 82 90 91 115 123 125 127 130 134 145 151 152 172 185 194
b 72 22 77 82 90 91 97 115 123 125 127 130 134 145 151 152 172 185 194
b 73 22 30 77 90 91 97 115 123 125 127 130 134 145 151 152 172 185 194
b 74 22 30 77 91 97 115 123 125 127 130 134 145 151 152 172 185 189 194
b 75 22 30 77 97 115 123 125 127 130 134 145 151 152 164 172 185 189 194
b 76 8 22 30 77 97 115 123 125 127 134 145 151 152 164 172 185 189 194
b 77 8 22 30 77 97 115 123 125 127 134 148 151 152 164 172 185 189 194
b 78 8 16 22 30 32 47 77 83 94 97 124 138 141 148 150 164 185 189 194
b 79 8 16 22 30 47 77 83 94 97 124 137 138 141 148 150 164 172 185 189 194
b 80 8 16 22 30 47 77 83 97 124 125 127 137 138 141 148 150 164 172 185 189 194
b 81 8 16 22 30 47 77 97 124 125 127 137 138 141 148 150 151 164 172 185 189 194
b 82 8 16 22 30 47 77 97 123 125 127 137 138 141 148 150 151 164 172 185 189 194
b 83 8 16 22 30 47 77 97 115 123 125 127 134 138 141 148 150 151 164 172 185 189 194
b 84 8 16 17 22 30 47 77 97 115 123 134 138 141 148 150 164 185 189
b 85 8 16 17 22 30 47 77 97 115 134 138 141 148 150 164 185 189 190
b 86 4 8 16 17 22 30 47 77 84 97 103 108 109 114 115 129 135 138 141 148 150 164 170 174 179 180 185 189 190
b 87 4 8 16 17 22 30 47 72 77 84 97 103 108 109 114 129 135 138 141 148 150 164 170 174 179 180 185 189 190
b 88 4 8 17 22 30 47 77 84 103 108 109 114 115 129 135 138 141 148 150 164 170 174 177 179 180 185 189 190
b 89 4 8 17 22 30 47 77 84 103 108 109 114 115 129 138 148 150 159 164 170 174 177 179 180 185 189 190
b 90 4 8 17 22 30 47 84 103 108 109 114 115 129 138 148 149 150 159 164 170 174 177 179 180 185 189
b 91 4 8 17 22 30 47 84 103 108 109 115 129 140 148 149 150 159 164 170 174 177 179 180 185 189
b 92 4 8 17 22 30 84 103 108 109 115 121 140 148 149 150 159 164 170 174 177 179 180 185 189
b 93 4 8 17 22 30 84 103 108 109 115 120 121 140 148 149 150 159 164 170 177 179 180 185
b 94 4 8 17 30 84 98 103 108 109 115 120 121 140 148 149 150 159 164 170 177 179 185
b 95 4 8 17 30 84 85 98 103 108 109 115 120 121 140 148 149 150 159 170 177 185
b 96 4 8 17 30 53 85 98 103 108 109 115 120 121 140 149 150 159 170 177 185
b 97 4 8 17 23 53 85 98 103 108 115 120 121 140 149 150 159 170 177 185
b 98 4 8 11 17 23 53 85 98 103 108 115 120 121 140 149 159 177 185
b 99 4 8 16 17 22 30 47 72 77 81 84 97 108 109 114 129 135 138 141 148 150 164 170 174 179 180 185 189 190
b 100 6 7 27 34 35 38 39 40 43 51 56 67 75 78 92 93 96 104 111 117 128 136 146 160 161 169 178 182 187
1 8
2 10
3 38
4 7
5 70
6 9
7 65
8 34
9 98
10 11
11 12
12 13
13 14
14 15
15 16
16 37
17 19
18 19
19 20
20 36
20 21
21 22
22 85
22 47
22 24
22 23
24 25
24 35
25 26
26 27
27 28
28 29
29 30
30 31
31 32
32 33
33 34
35 100
36 37
38 39
39 40
40 41
41 42
42 43
43 44
44 45
45 47
46 66
47 48
48 49
49 66
49 50
50 51
51 52
52 68
52 53
53 54
54 55
55 56
56 57
57 58
58 59
59 60
60 61
61 62
62 63
63 64
64 65
66 67
69 100
70 71
71 72
72 73
73 74
74 75
75 76
76 77
77 83
78 79
79 80
80 81
81 82
82 83
83 84
84 85
85 86
86 87
86 88
87 99
88 89
89 90
90 91
91 92
92 93
93 94
94 95
95 96
96 97
97 98
